10J3M/DAT/10J3MUNL-12.dat
10 3
16.0501 16.0501
39.0267 39.0267
7.7187 7.7187
9.18 9.18
3.2109 3.2109
34.6076 34.6076
46.775 46.775
21.3061 21.3061
40.2745 40.2745
41.6881 41.6881
259.8377