10J3M/SOL/10J3MUNL-12.sol
solution status: optimal solution found
objective value:                     70.1580333333333
x#1#1                                               1 	(obj:0)
x#2#2                                0.44496485060739 	(obj:0)
x#2#3                                0.55503514939261 	(obj:0)
x#3#3                                               1 	(obj:0)
x#4#1                                               1 	(obj:0)
x#5#2                                               1 	(obj:0)
x#6#1                                               1 	(obj:0)
x#7#1                                               1 	(obj:0)
x#8#1                                               1 	(obj:0)
x#9#3                                               1 	(obj:0)
x#10#1                              0.231887152839567 	(obj:0)
x#10#2                              0.768112847160433 	(obj:0)
z                                    70.1580333333333 	(obj:1)
